Reading model...
...model read.
creating competitive generators file...
...competitive generators recorded.
Loading data...
.. real-time data read.
Compiling instance...
...instance created.
Creating Offer Mitigation (model will solve as dispatch if TRUE)...
NOTE: storage offers will not be mitigated
...storage offer mitigation file created
Converting model to MPEC...
...converted
NOTE: initial MIP solve with only storage competitive to get feasible solution
Solving...

Welcome to IBM(R) ILOG(R) CPLEX(R) Interactive Optimizer 12.9.0.0
  with Simplex, Mixed Integer & Barrier Optimizers
5725-A06 5725-A29 5724-Y48 5724-Y49 5724-Y54 5724-Y55 5655-Y21
Copyright IBM Corp. 1988, 2019.  All Rights Reserved.

Type 'help' for a list of available commands.
Type 'help' followed by a command name for more
information on commands.

CPLEX> Logfile 'cplex.log' closed.
Logfile 'C:\Users\llavin\Desktop\test826\logs\tmpns59o5aq.cplex.log' open.
CPLEX> New value for parallel optimization mode: -1
CPLEX> New value for emphasis for MIP optimization: 1
CPLEX> New value for mixed integer optimality gap tolerance: 0.01
CPLEX> New value for integrality tolerance: 1e-12
CPLEX> New value for deterministic time limit in ticks: 65000
CPLEX> Problem 'C:\Users\llavin\Desktop\test826\logs\tmpk16arj7q.pyomo.lp' read.
Read time = 0.48 sec. (28.93 ticks)
CPLEX> Problem name         : C:\Users\llavin\Desktop\test826\logs\tmpk16arj7q.pyomo.lp
Objective sense      : Maximize
Variables            :  107803  [Nneg: 1,  Box: 44062,  Free: 8928,
                                 Binary: 54812]
Objective nonzeros   :   18318
Linear constraints   :  246963  [Less: 82886,  Greater: 118460,  Equal: 45617]
  Nonzeros           :  621779
  RHS nonzeros       :  135959

Variables            : Min LB: -5000.000        Max UB: 1000000.       
Objective nonzeros   : Min   : 0.008333333      Max   : 180.0000       
Linear constraints   :
  Nonzeros           : Min   : 0.001000000      Max   : 1000000.       
  RHS nonzeros       : Min   : 0.001000000      Max   : 1000000.       
CPLEX> CPXPARAM_Parallel                                -1
CPXPARAM_Emphasis_MIP                            1
CPXPARAM_DetTimeLimit                            65000
CPXPARAM_MIP_Tolerances_MIPGap                   0.01
CPXPARAM_MIP_Tolerances_Integrality              9.9999999999999998e-13
Tried aggregator 3 times.
MIP Presolve eliminated 175836 rows and 36563 columns.
MIP Presolve added 7181 rows and 0 columns.
MIP Presolve modified 51707 coefficients.
Aggregator did 26113 substitutions.
Reduced MIP has 52195 rows, 44287 columns, and 166388 nonzeros.
Reduced MIP has 17518 binaries, 0 generals, 0 SOSs, and 0 indicators.
Presolve time = 0.59 sec. (399.67 ticks)
Probing fixed 805 vars, tightened 11970 bounds.
Probing time = 0.45 sec. (17.89 ticks)
Tried aggregator 2 times.
MIP Presolve eliminated 1877 rows and 1615 columns.
MIP Presolve modified 6430 coefficients.
Aggregator did 48 substitutions.
Reduced MIP has 50270 rows, 42624 columns, and 153011 nonzeros.
Reduced MIP has 16713 binaries, 0 generals, 0 SOSs, and 0 indicators.
Presolve time = 0.27 sec. (268.35 ticks)
Probing fixed 1 vars, tightened 655 bounds.
Probing time = 0.59 sec. (20.41 ticks)
Clique table members: 90602.
MIP emphasis: integer feasibility.
MIP search method: dynamic search.
Parallel mode: opportunistic, using up to 32 threads.
Root relaxation solution time = 1.03 sec. (2070.90 ticks)

        Nodes                                         Cuts/
   Node  Left     Objective  IInf  Best Integer    Best Bound    ItCnt     Gap

      0     0        0.0125   151                      0.0125    10006         
*     0+    0                            0.0125        0.0125             0.00%
      0     0        cutoff              0.0125        0.0125    10008    0.00%
Elapsed time = 4.20 sec. (3753.39 ticks, tree = 0.01 MB, solutions = 1)

Cover cuts applied:  1
Mixed integer rounding cuts applied:  1

Root node processing (before b&c):
  Real time             =    4.25 sec. (3757.12 ticks)
Parallel b&c, 32 threads:
  Real time             =    0.00 sec. (0.00 ticks)
  Sync time (average)   =    0.00 sec.
  Wait time (average)   =    0.00 sec.
                          ------------
Total (root+branch&cut) =    4.25 sec. (3757.12 ticks)

Solution pool: 1 solution saved.

MIP - Integer optimal solution:  Objective =  1.2455902307e-02
Solution time =    4.27 sec.  Iterations = 10008  Nodes = 0
Deterministic time = 3757.43 ticks  (880.78 ticks/sec)

CPLEX> Incumbent solution written to file 'C:\Users\llavin\Desktop\test826\logs\tmphhl5tpi4.cplex.sol'.
CPLEX> NOTE: no warmstart specified for MIP iteration, default behavior is true
NOTE: resolving with all competitive generators using storage-only solution to warmstart
Solving...

Welcome to IBM(R) ILOG(R) CPLEX(R) Interactive Optimizer 12.9.0.0
  with Simplex, Mixed Integer & Barrier Optimizers
5725-A06 5725-A29 5724-Y48 5724-Y49 5724-Y54 5724-Y55 5655-Y21
Copyright IBM Corp. 1988, 2019.  All Rights Reserved.

Type 'help' for a list of available commands.
Type 'help' followed by a command name for more
information on commands.

CPLEX> Logfile 'cplex.log' closed.
Logfile 'C:\Users\llavin\Desktop\test826\logs\tmpo3qr45pk.cplex.log' open.
CPLEX> New value for parallel optimization mode: -1
CPLEX> New value for emphasis for MIP optimization: 1
CPLEX> New value for mixed integer optimality gap tolerance: 0.01
CPLEX> New value for integrality tolerance: 1e-12
CPLEX> New value for deterministic time limit in ticks: 65000
CPLEX> Problem 'C:\Users\llavin\Desktop\test826\logs\tmp6q8gvbfr.pyomo.lp' read.
Read time = 0.49 sec. (28.97 ticks)
CPLEX> MIP start file 'C:\Users\llavin\Desktop\test826\logs\tmpbm_56tto.cplex.mst' read.
CPLEX> Problem name         : C:\Users\llavin\Desktop\test826\logs\tmp6q8gvbfr.pyomo.lp
Objective sense      : Maximize
Variables            :  109243  [Nneg: 1,  Box: 45502,  Free: 8928,
                                 Binary: 54812]
Objective nonzeros   :   19710
Linear constraints   :  246963  [Less: 82886,  Greater: 118460,  Equal: 45617]
  Nonzeros           :  621779
  RHS nonzeros       :  135959

Variables            : Min LB: -5000.000        Max UB: 1000000.       
Objective nonzeros   : Min   : 0.008333333      Max   : 180.0000       
Linear constraints   :
  Nonzeros           : Min   : 0.001000000      Max   : 1000000.       
  RHS nonzeros       : Min   : 0.001000000      Max   : 1000000.       
CPLEX> CPXPARAM_Parallel                                -1
CPXPARAM_Emphasis_MIP                            1
CPXPARAM_DetTimeLimit                            65000
CPXPARAM_MIP_Tolerances_MIPGap                   0.01
CPXPARAM_MIP_Tolerances_Integrality              9.9999999999999998e-13
Warning:  No solution found from 1 MIP starts.
Retaining values of one MIP start for possible repair.
Tried aggregator 3 times.
MIP Presolve eliminated 175836 rows and 38003 columns.
MIP Presolve added 7181 rows and 0 columns.
MIP Presolve modified 51707 coefficients.
Aggregator did 26113 substitutions.
Reduced MIP has 52195 rows, 44287 columns, and 166388 nonzeros.
Reduced MIP has 17518 binaries, 0 generals, 0 SOSs, and 0 indicators.
Presolve time = 0.59 sec. (400.44 ticks)
Probing fixed 805 vars, tightened 11970 bounds.
Probing time = 0.42 sec. (17.89 ticks)
Tried aggregator 2 times.
MIP Presolve eliminated 1877 rows and 1615 columns.
MIP Presolve modified 6430 coefficients.
Aggregator did 48 substitutions.
Reduced MIP has 50270 rows, 42624 columns, and 153011 nonzeros.
Reduced MIP has 16713 binaries, 0 generals, 0 SOSs, and 0 indicators.
Presolve time = 0.27 sec. (268.37 ticks)
Probing fixed 1 vars, tightened 655 bounds.
Probing time = 0.61 sec. (20.41 ticks)
Clique table members: 90602.
MIP emphasis: integer feasibility.
MIP search method: dynamic search.
Parallel mode: opportunistic, using up to 32 threads.
Root relaxation solution time = 1.19 sec. (2179.93 ticks)

        Nodes                                         Cuts/
   Node  Left     Objective  IInf  Best Integer    Best Bound    ItCnt     Gap

      0     0    10874.2598   316                  10874.2598    11312         
      0     0    10211.0881   199                   Cuts: 160    11614         
      0     0    10123.3135   177                    Cuts: 58    11646         
      0     0    10111.4623   175                    Cuts: 11    11667         
Repair heuristic found nothing.
      0    25     9494.8308   147                     Cuts: 4    11865         
Elapsed time = 10.52 sec. (5318.92 ticks, tree = 0.02 MB, solutions = 0)
    333    74     9188.9207   160                   9714.1949    12150         
    729   272    infeasible                         9714.1949    13181         
   1132   381     2191.8963    88                   9714.1949    14913         
   1399  1047      270.6716    67                   9714.1949    30779         
   1682   741     -794.2886    34                   9714.1949    22680         
   1950  1133    infeasible                         9714.1949    34060         
   2283  1114    -4665.3809    40                   9655.8267    33645         
   2661  1242    -6208.1063    34                   9655.8267    38258         
   3018  1570      986.6317    47                   9655.8267    47140         
   4381  1982    -1458.8864    63                   9655.8267    60354         
Elapsed time = 32.22 sec. (8426.02 ticks, tree = 21.12 MB, solutions = 0)
   5626  2602    infeasible                         9655.8267    87349         
   6818  3180     1396.8391    62                   9543.8351   118437         
   7959  4039    -2411.3463    81                   9541.7804   178667         
   9228  4449      830.0461    51                   9541.7804   211864         
  10482  4472   -29497.9959    79                   9541.7804   212971         
  11759  4899    infeasible                         9541.7804   234939         
  13086  6231   -11359.3138    75                   9541.7804   324366         
  14438  5626    -1587.0415    48                   9541.7804   292527         
  15765  6455   -15907.0297    68                   9541.7804   337820         
  17048  7088     -231.3480    83                   9541.7804   375841         
Elapsed time = 98.03 sec. (17972.10 ticks, tree = 298.08 MB, solutions = 0)
  18322  7802      -86.6237    82                   9541.7804   405447         
  19705  8193    -2350.7090    63                   9541.7804   428844         
  21132  9070    infeasible                         9541.7804   486571         
  22597  9151    infeasible                         9541.7804   489945         
* 22907+ 2765                            0.0125     9541.7804              --- 
  24205  9649    -1696.5465    36        0.0125     9541.7804   523173     --- 
  24889  2445    infeasible              0.0125     9541.7804   547875     --- 
  25207  1935        cutoff              0.0125     2854.6937   616969     --- 
  25556    10        cutoff              0.0125      759.8891   620269     --- 

Cover cuts applied:  10
Implied bound cuts applied:  24
Flow cuts applied:  167
Mixed integer rounding cuts applied:  11
Lift and project cuts applied:  15
Gomory fractional cuts applied:  3

Root node processing (before b&c):
  Real time             =    6.48 sec. (5220.88 ticks)
Parallel b&c, 32 threads:
  Real time             =  135.45 sec. (26074.13 ticks)
  Sync time (average)   =    6.85 sec.
  Wait time (average)   =    0.39 sec.
                          ------------
Total (root+branch&cut) =  141.94 sec. (31295.00 ticks)

Solution pool: 1 solution saved.

MIP - Integer optimal solution:  Objective =  1.2455902244e-02
Solution time =  141.97 sec.  Iterations = 620651  Nodes = 25557
Deterministic time = 31295.32 ticks  (220.44 ticks/sec)

CPLEX> Incumbent solution written to file 'C:\Users\llavin\Desktop\test826\logs\tmpj47_0b9u.cplex.sol'.
CPLEX> Exporting results... 
